data;
param n:=50;
param w:=1 14 2 123 3 205 4 -142 5 -115 6 75 7 153 8 171 9 -140 10 -123 11 87 12 -69 13 -37 14 211 15 152 16 -197 17 79 18 -118 19 181 20 -173 21 -253 22 127 23 -265 24 168 25 -214 26 -24 27 -179 28 117 29 51 30 -232 31 -161 32 -270 33 -72 34 150 35 -4 36 -47 37 62 38 201 39 -215 40 -210 41 116 42 129 43 149 44 139 45 149 46 11 47 70 48 169 49 85 50 -84;
